c WARNING: for repeatability, setting FPU to use double precision
d VARIABLES            120438       
d CONSTRAINTS          533396       
c ============================[ Problem Statistics ]=============================
c |                                                                             |
c |  Number of variables:        120438                                         |
c |  Number of clauses:          533396                                         |
c |  Parse time:                   0.09 s                                       |
c |                                                                             |
c ============================[ Search Statistics ]==============================
c | Conflicts |          ORIGINAL         |          LEARNT          | Progress |
c |           |    Vars  Clauses Literals |    Limit  Clauses Lit/Cl |          |
c ===============================================================================
c |       100 |  101544   479516  1163560 |   175822      100     75 | 15.688 % |
c |       250 |  101544   479516  1163560 |   193404      250     78 | 15.688 % |
c |       475 |  101544   479516  1163560 |   212745      475    102 | 15.688 % |
c |       812 |  101544   479516  1163560 |   234019      812    103 | 15.688 % |
c |      1318 |  101544   479516  1163560 |   257421     1318    117 | 15.688 % |
c |      2077 |  101544   479516  1163560 |   283163     2077    114 | 15.688 % |
c |      3216 |  101544   479516  1163560 |   311480     3216    144 | 15.688 % |
c |      4924 |  101544   479516  1163560 |   342628     4924    126 | 15.688 % |
c |      7486 |  101544   479516  1163560 |   376891     7486    151 | 15.688 % |
c |     11330 |  101544   479516  1163560 |   414580    11330    138 | 15.688 % |
c |     17096 |  101544   479516  1163560 |   456038    17096    142 | 15.688 % |
c |     25745 |  101544   479516  1163560 |   501642    25745    152 | 15.688 % |
c |     38719 |  101544   479516  1163560 |   551806    38719    143 | 15.688 % |
c |     58180 |  101544   479516  1163560 |   606987    58180    147 | 15.688 % |
c |     87372 |  101544   479516  1163560 |   667685    87372    152 | 15.688 % |
c |    131161 |  101543   479508  1163542 |   734454   131154    144 | 15.689 % |
c |    196845 |  101543   479508  1163542 |   807899   196838    146 | 15.689 % |
c |    295371 |  101543   479508  1163542 |   888689   295364    155 | 15.689 % |
c |    443160 |  101543   479508  1163542 |   977558   443153    162 | 15.689 % |
c |    664843 |  101543   479508  1163542 |  1075314   664836    164 | 15.689 % |
c |    997368 |  101542   479500  1163524 |  1182846   997335    164 | 15.689 % |
c |   1496156 |  101540   479484  1163488 |  1301130   333195    134 | 15.691 % |
c |   2244338 |  101519   479358  1163196 |  1431243  1081295    156 | 15.708 % |
c ===============================================================================
c restarts              : 4095
c conflicts             : 2385407        (1331 /sec)
c decisions             : 6891108        (0.00 % random) (3845 /sec)
c propagations          : 2881937079     (1608073 /sec)
c conflict literals     : 384428340      (36.03 % deleted)
d RESTARTS             4095
d FAILURES             2385407      
d NODES                6891108      
d BACKTRACKS           6891108      
d PROPAGATIONS         2881937079   
d NOGOODSIZE           161.16 
d MEMORY               1026.00 
d TIME                 1792.17 

s UNKNOWN
